1000
1000 1000
1 700 755
2 700 847
3 699 523
4 699 592
5 699 311
6 699 132
7 698 977
8 696 964
9 696 283
10 696 460
11 695 923
12 695 944
13 695 880
14 694 883
15 693 132
16 692 411
17 691 398
18 691 504
19 690 441
20 690 595
21 688 571
22 688 577
23 688 804
24 688 773
25 687 36
26 687 762
27 686 912
28 686 991
29 686 592
30 685 759
31 684 96
32 683 362
33 682 522
34 682 852
35 682 346
36 681 822
37 681 564
38 680 333
39 680 979
40 677 950
41 677 308
42 676 245
43 676 786
44 674 943
45 672 594
46 671 423
47 671 38
48 670 167
49 670 964
50 670 744
51 670 223
52 670 822
53 669 865
54 669 534
55 669 234
56 669 785
57 668 50
58 668 892
59 668 333
60 668 497
61 667 356
62 667 197
63 666 568
64 666 954
65 664 843
66 663 86
67 662 472
68 662 318
69 662 355
70 661 458
71 661 624
72 661 201
73 661 878
74 660 537
75 658 698
76 657 589
77 657 242
78 657 331
79 657 648
80 657 712
81 657 764
82 657 486
83 657 607
84 656 133
85 655 915
86 654 897
87 653 266
88 653 510
89 653 716
90 652 237
91 651 6
92 651 412
93 651 732
94 651 987
95 650 80
96 649 12
97 647 147
98 647 462
99 646 313
100 645 883
101 645 487
102 645 477
103 645 491
104 644 982
105 644 613
106 643 427
107 643 425
108 642 306
109 642 532
110 641 744
111 641 51
112 641 29
113 641 107
114 640 678
115 639 540
116 638 847
117 637 441
118 636 668
119 636 93
120 633 701
121 632 46
122 631 237
123 631 858
124 629 478
125 629 69
126 629 714
127 628 621
128 628 337
129 626 94
130 626 354
131 625 857
132 624 677
133 624 128
134 624 633
135 623 642
136 621 113
137 621 605
138 620 213
139 619 160
140 619 422
141 618 497
142 617 688
143 617 639
144 616 849
145 616 795
146 616 287
147 615 449
148 613 962
149 613 353
150 612 578
151 611 914
152 611 317
153 610 942
154 609 841
155 609 642
156 609 414
157 608 902
158 607 3
159 607 312
160 606 970
161 603 338
162 603 900
163 603 85
164 603 228
165 599 442
166 598 690
167 598 18
168 597 491
169 595 896
170 594 250
171 593 578
172 593 447
173 592 149
174 592 915
175 592 925
176 591 46
177 591 408
178 590 147
179 588 571
180 586 926
181 586 709
182 586 468
183 585 115
184 584 891
185 584 713
186 584 115
187 583 991
188 583 464
189 583 897
190 583 817
191 582 601
192 581 71
193 580 331
194 580 461
195 580 339
196 580 86
197 578 701
198 577 528
199 575 482
200 575 0
201 574 988
202 574 920
203 574 861
204 573 732
205 573 731
206 571 964
207 571 313
208 570 125
209 569 12
210 567 69
211 566 484
212 566 822
213 566 12
214 565 922
215 565 335
216 565 491
217 565 384
218 565 572
219 563 717
220 562 324
221 562 673
222 562 270
223 560 687
224 559 955
225 559 92
226 558 655
227 556 208
228 555 857
229 555 853
230 553 698
231 553 0
232 553 612
233 552 315
234 552 641
235 551 409
236 550 463
237 550 405
238 549 998
239 549 251
240 549 157
241 548 506
242 548 131
243 548 712
244 548 912
245 547 186
246 545 163
247 545 269
248 545 571
249 545 496
250 545 103
251 544 634
252 544 256
253 543 726
254 543 978
255 542 731
256 541 14
257 540 2
258 539 533
259 539 19
260 538 613
261 538 334
262 536 608
263 536 632
264 535 56
265 535 685
266 534 10
267 534 266
268 534 705
269 534 627
270 534 835
271 533 719
272 533 604
273 533 0
274 532 220
275 532 632
276 532 109
277 531 473
278 531 903
279 531 424
280 530 421
281 530 115
282 530 783
283 529 758
284 529 196
285 528 23
286 527 378
287 527 303
288 527 148
289 527 97
290 525 436
291 525 381
292 525 713
293 524 214
294 523 747
295 523 91
296 522 184
297 521 365
298 521 345
299 521 473
300 519 709
301 519 804
302 518 930
303 518 892
304 518 374
305 517 802
306 517 124
307 516 898
308 516 787
309 514 135
310 512 867
311 510 504
312 510 22
313 507 912
314 506 457
315 506 1000
316 505 470
317 503 507
318 503 36
319 502 292
320 501 579
321 501 341
322 501 421
323 501 209
324 501 303
325 499 520
326 499 710
327 499 675
328 498 720
329 498 623
330 498 560
331 497 904
332 496 783
333 496 527
334 495 89
335 494 535
336 493 581
337 493 442
338 493 847
339 493 85
340 492 427
341 492 368
342 491 758
343 491 330
344 491 696
345 491 439
346 489 349
347 489 499
348 489 806
349 488 986
350 487 570
351 485 983
352 485 361
353 482 888
354 482 843
355 481 228
356 481 674
357 480 852
358 480 587
359 479 235
360 479 896
361 478 250
362 478 975
363 478 612
364 476 348
365 476 584
366 476 991
367 476 424
368 475 893
369 475 307
370 475 692
371 474 231
372 473 870
373 473 488
374 472 252
375 472 395
376 472 680
377 470 190
378 470 656
379 470 786
380 470 167
381 470 892
382 469 313
383 468 480
384 468 637
385 467 229
386 467 192
387 467 36
388 466 237
389 465 896
390 464 73
391 464 325
392 463 452
393 463 401
394 463 285
395 463 566
396 462 56
397 462 366
398 462 270
399 461 354
400 461 932
401 460 486
402 460 282
403 459 523
404 458 651
405 458 131
406 457 481
407 457 705
408 456 692
409 455 729
410 454 483
411 454 16
412 453 616
413 453 369
414 452 535
415 452 233
416 452 339
417 451 612
418 451 816
419 450 921
420 449 921
421 448 331
422 448 748
423 447 820
424 447 382
425 446 353
426 446 891
427 445 346
428 445 230
429 445 266
430 445 34
431 443 114
432 443 585
433 443 664
434 443 563
435 441 759
436 440 43
437 439 848
438 439 70
439 437 534
440 437 362
441 437 716
442 437 607
443 437 355
444 436 938
445 436 558
446 436 72
447 436 979
448 435 638
449 435 452
450 435 792
451 435 792
452 434 23
453 434 88
454 433 29
455 433 485
456 433 40
457 432 176
458 432 418
459 432 181
460 431 540
461 429 922
462 429 208
463 429 272
464 429 26
465 429 122
466 429 938
467 428 429
468 426 261
469 426 57
470 425 808
471 425 699
472 424 673
473 424 557
474 423 957
475 420 899
476 420 127
477 420 99
478 418 944
479 418 394
480 418 255
481 418 470
482 416 492
483 416 554
484 416 711
485 414 504
486 413 534
487 413 624
488 413 727
489 411 839
490 411 202
491 409 955
492 409 472
493 406 227
494 405 867
495 404 36
496 404 561
497 403 739
498 401 367
499 401 24
500 401 193
501 401 636
502 401 628
503 400 432
504 400 646
505 399 175
506 399 608
507 399 76
508 399 408
509 398 921
510 397 973
511 396 379
512 396 548
513 392 687
514 392 201
515 391 32
516 391 924
517 389 657
518 389 853
519 388 452
520 387 257
521 386 33
522 386 383
523 385 291
524 385 133
525 384 955
526 384 481
527 384 758
528 384 485
529 381 372
530 381 909
531 381 404
532 381 512
533 380 965
534 380 866
535 380 639
536 378 538
537 378 141
538 377 520
539 377 850
540 376 233
541 376 167
542 375 30
543 375 377
544 375 442
545 375 541
546 374 279
547 374 48
548 374 470
549 374 766
550 373 137
551 373 832
552 372 694
553 371 1000
554 371 750
555 370 714
556 370 99
557 370 187
558 369 733
559 369 953
560 368 687
561 368 309
562 368 520
563 368 813
564 367 414
565 367 889
566 366 857
567 366 422
568 366 56
569 365 776
570 365 242
571 365 775
572 364 355
573 364 148
574 364 637
575 364 115
576 363 91
577 363 979
578 363 19
579 362 690
580 362 207
581 362 654
582 361 805
583 360 107
584 360 858
585 360 6
586 360 674
587 360 765
588 359 836
589 359 662
590 357 342
591 357 492
592 356 934
593 356 729
594 355 127
595 355 779
596 353 529
597 353 565
598 352 150
599 352 763
600 351 718
601 351 58
602 350 738
603 349 885
604 348 96
605 348 942
606 348 639
607 347 266
608 345 656
609 344 833
610 344 273
611 343 689
612 343 970
613 342 710
614 341 981
615 339 975
616 339 896
617 339 114
618 338 956
619 338 238
620 337 871
621 337 148
622 336 519
623 336 751
624 336 933
625 335 851
626 334 924
627 334 933
628 333 650
629 332 341
630 331 850
631 330 920
632 330 775
633 328 232
634 328 890
635 328 673
636 327 649
637 327 206
638 325 686
639 325 490
640 325 921
641 324 529
642 322 286
643 322 601
644 319 457
645 319 911
646 318 452
647 318 525
648 317 582
649 317 956
650 315 369
651 315 991
652 314 431
653 314 694
654 313 319
655 313 608
656 313 447
657 313 567
658 312 449
659 311 189
660 310 112
661 310 406
662 309 548
663 309 894
664 307 136
665 305 396
666 305 666
667 305 513
668 304 160
669 302 75
670 300 163
671 299 438
672 298 358
673 297 228
674 296 887
675 296 663
676 295 62
677 295 189
678 294 309
679 294 135
680 294 824
681 293 479
682 292 848
683 290 529
684 290 573
685 290 240
686 288 803
687 288 479
688 287 630
689 287 610
690 287 862
691 287 491
692 287 461
693 287 375
694 286 509
695 286 478
696 285 229
697 285 692
698 284 425
699 284 952
700 282 763
701 281 153
702 280 599
703 280 755
704 279 680
705 279 304
706 278 886
707 276 211
708 275 522
709 275 150
710 275 728
711 274 65
712 274 625
713 272 750
714 270 365
715 270 248
716 270 883
717 270 308
718 269 180
719 269 633
720 269 150
721 268 67
722 268 422
723 267 66
724 266 581
725 265 1000
726 263 522
727 263 336
728 262 414
729 262 544
730 262 482
731 261 301
732 260 443
733 260 773
734 260 732
735 258 818
736 257 233
737 257 658
738 256 35
739 255 323
740 255 44
741 255 303
742 254 240
743 253 219
744 252 365
745 252 393
746 252 378
747 251 577
748 250 713
749 250 251
750 249 622
751 249 511
752 249 596
753 248 98
754 247 601
755 246 852
756 245 426
757 242 552
758 242 408
759 241 499
760 240 459
761 239 683
762 238 949
763 238 9
764 238 137
765 237 831
766 237 470
767 236 227
768 235 958
769 235 291
770 234 700
771 234 556
772 234 286
773 233 844
774 233 819
775 233 213
776 233 232
777 232 90
778 232 792
779 230 237
780 230 97
781 229 145
782 229 86
783 228 613
784 227 868
785 227 850
786 226 490
787 226 621
788 225 343
789 224 419
790 223 316
791 223 567
792 222 285
793 222 682
794 221 744
795 219 508
796 219 140
797 219 305
798 218 354
799 218 552
800 217 983
801 217 212
802 216 970
803 214 893
804 213 286
805 213 464
806 212 727
807 212 481
808 211 15
809 211 509
810 211 943
811 210 402
812 210 683
813 210 852
814 209 464
815 209 349
816 208 428
817 208 273
818 208 823
819 208 564
820 205 643
821 204 860
822 203 681
823 202 454
824 202 781
825 201 540
826 201 292
827 201 102
828 199 614
829 199 956
830 198 480
831 198 42
832 197 807
833 195 300
834 194 953
835 194 562
836 193 717
837 193 664
838 192 387
839 192 681
840 191 164
841 191 824
842 190 60
843 190 307
844 188 428
845 187 705
846 187 257
847 187 654
848 184 532
849 183 527
850 182 391
851 181 927
852 180 616
853 180 950
854 179 805
855 179 426
856 179 648
857 179 33
858 178 334
859 177 747
860 177 394
861 176 14
862 175 748
863 174 153
864 174 385
865 173 314
866 173 428
867 173 950
868 172 631
869 172 401
870 171 655
871 171 448
872 171 436
873 170 924
874 169 807
875 169 468
876 168 313
877 168 61
878 167 478
879 166 498
880 166 422
881 165 46
882 165 352
883 164 152
884 164 400
885 163 0
886 163 390
887 163 114
888 162 613
889 161 714
890 161 243
891 161 685
892 160 325
893 159 760
894 159 69
895 159 82
896 158 947
897 158 149
898 158 572
899 158 73
900 157 300
901 156 971
902 155 236
903 155 937
904 155 14
905 154 957
906 153 739
907 152 184
908 152 968
909 151 378
910 150 599
911 149 331
912 148 796
913 148 285
914 147 752
915 147 630
916 146 298
917 145 243
918 145 474
919 145 553
920 145 659
921 144 736
922 144 763
923 144 773
924 143 91
925 142 186
926 142 265
927 142 304
928 142 684
929 141 944
930 141 585
931 140 271
932 140 967
933 140 657
934 138 330
935 138 623
936 138 882
937 138 492
938 137 550
939 137 403
940 136 871
941 136 945
942 134 319
943 133 508
944 133 812
945 132 770
946 131 848
947 131 118
948 130 154
949 129 523
950 129 923
951 128 109
952 126 29
953 126 316
954 125 297
955 125 142
956 124 447
957 124 171
958 123 356
959 123 724
960 122 422
961 121 239
962 121 851
963 121 198
964 120 852
965 118 47
966 117 986
967 115 44
968 115 461
969 114 463
970 114 766
971 114 961
972 113 213
973 112 913
974 112 830
975 111 116
976 111 810
977 110 928
978 107 398
979 107 132
980 107 216
981 106 58
982 105 325
983 105 147
984 105 938
985 105 419
986 104 332
987 104 760
988 104 133
989 103 637
990 103 590
991 103 1
992 102 461
993 102 207
994 101 554
995 101 424
996 101 693
997 101 581
998 100 530
999 100 689
1000 100 419
